GLPSOL--GLPK LP/MIP Solver 5.0
Parameter(s) specified in the command line:
 --lp ../modeles/4_264.lp --log 4_264.log
Reading problem data from '../modeles/4_264.lp'...
1073 rows, 2120 columns, 7404 non-zeros
1056 integer variables, all of which are binary
3203 lines were read
GLPK Integer Optimizer 5.0
1073 rows, 2120 columns, 7404 non-zeros
1056 integer variables, all of which are binary
Preprocessing...
1048 constraint coefficient(s) were reduced
1073 rows, 2116 columns, 7400 non-zeros
1056 integer variables, all of which are binary
Scaling...
 A: min|aij| =  2.296e-04  max|aij| =  4.000e+00  ratio =  1.742e+04
GM: min|aij| =  8.704e-02  max|aij| =  1.149e+01  ratio =  1.320e+02
EQ: min|aij| =  7.576e-03  max|aij| =  1.000e+00  ratio =  1.320e+02
2N: min|aij| =  3.673e-03  max|aij| =  1.708e+00  ratio =  4.650e+02
Constructing initial basis...
Size of triangular part is 1073
Solving LP relaxation...
GLPK Simplex Optimizer 5.0
1073 rows, 2116 columns, 7400 non-zeros
      0: obj =   8.000000000e+00 inf =   1.620e+02 (9)
     83: obj =   4.136842407e-01 inf =   0.000e+00 (0)
*   237: obj =  -2.000000000e+00 inf =   1.898e-14 (0)
OPTIMAL LP SOLUTION FOUND
Integer optimization begins...
Long-step dual simplex will be used
+   237: mip =     not found yet >=              -inf        (1; 0)
+   237: >>>>>  -2.000000000e+00 >=  -2.000000000e+00   0.0% (1; 0)
+   237: mip =  -2.000000000e+00 >=     tree is empty   0.0% (0; 1)
INTEGER OPTIMAL SOLUTION FOUND
Time used:   0.0 secs
Memory used: 3.0 Mb (3148318 bytes)
